# Solution for model GasLib-40
# Objective value = 1.4463384495017321e+01
loadshed[innode_1] 0
loadshed[innode_2] 0
loadshed[innode_3] 0
loadshed[innode_4] 0
loadshed[innode_5] 0
loadshed[innode_6] 0
loadshed[innode_7] 0
loadshed[innode_8] 0
loadshed[source_1] -0.234403523710363
loadshed[source_2] 1.3562128728331946e-01
loadshed[source_3] 1.9027037028523808e-01
loadshed[sink_1] 0
loadshed[sink_2] 0
loadshed[sink_3] 0
loadshed[sink_4] 0
loadshed[sink_5] 0
loadshed[sink_6] 0
loadshed[sink_7] 0
loadshed[sink_8] 0
loadshed[sink_9] 0
loadshed[sink_10] 0
loadshed[sink_11] 0
loadshed[sink_12] 8.8438529396284249e-01
loadshed[sink_13] 0
loadshed[sink_14] 0
loadshed[sink_15] 0
loadshed[sink_16] 0
loadshed[sink_17] 0
loadshed[sink_18] 0
loadshed[sink_19] 0
loadshed[sink_20] 0
loadshed[sink_21] 0
loadshed[sink_22] 0
loadshed[sink_23] 0
loadshed[sink_24] 0
loadshed[sink_25] 0
loadshed[sink_26] 0
loadshed[sink_27] 0
loadshed[sink_28] 0
loadshed[sink_29] 0
flow[source_1,sink_3] 1.9514719595323896e+02
flow[innode_1,sink_16] 1.6354166666666970e+01
flow[innode_6,sink_13] -1.3531215419836670e+01
flow[sink_13,sink_14] -2.9885382086503338e+01
flow[sink_14,sink_10] -4.6239548753170006e+01
flow[sink_25,sink_26] 2.3084911550498259e+02
flow[sink_26,sink_9] 1.3865339282536846e+02
flow[sink_9,sink_18] 1.2229922615870179e+02
flow[sink_26,sink_4] 7.5841556012947478e+01
flow[sink_4,sink_20] 5.9487389346280906e+01
flow[sink_18,sink_6] 1.0594505949203511e+02
flow[sink_25,innode_8] -1.6243886261990258e+02
flow[sink_6,sink_7] 5.6882559492034488e+01
flow[sink_6,sink_22] 3.2708333333333641e+01
flow[sink_7,sink_24] 3.4599115504982684e+01
flow[sink_22,sink_1] 1.6354166666666970e+01
flow[sink_24,sink_21] 1.8244948838316017e+01
flow[sink_21,sink_12] 1.8907821716493476e+00
flow[sink_7,sink_5] 5.9292773203856086e+00
flow[sink_5,sink_17] -1.0424889346281020e+01
flow[sink_17,sink_4] 0
flow[sink_17,sink_8] -2.6779056012947681e+01
flow[sink_3,sink_23] 16.3541666666697
flow[sink_8,sink_20] -4.3133222679614349e+01
flow[sink_25,sink_20] 0
flow[sink_25,sink_15] -7.1233204131910114e+01
flow[sink_15,sink_29] 0
flow[sink_29,sink_28] 1.6354166666667879e+01
flow[sink_29,sink_2] 1.0394153746524346e+02
flow[sink_2,sink_15] 8.7587370798576785e+01
flow[sink_29,innode_7] -136.649870798578
flow[innode_4,sink_19] 4.9988107314857807e+01
flow[sink_19,innode_3] 4.6506997521817929e+01
flow[innode_4,innode_5] 7.8022274771646039e+01
flow[sink_27,innode_5] -7.8022274771646039e+01
flow[sink_27,sink_19] 6.1668108104979375e+01
flow[sink_10,sink_11] 3.2708333333333641e+01
flow[sink_10,innode_2] -4.8795051231352382e+01
flow[sink_10,innode_3] -4.6506997521817929e+01
flow[innode_6,sink_25] 1.3531215419836670e+01
flow[sink_11,innode_1] 1.6354166666666970e+01
flow[sink_19,innode_2] 4.8795051231352382e+01
flow[source_3,innode_4] 1.2801038208650385e+02
flow[source_2,innode_7] 136.649870798578
flow[sink_3,innode_8] 1.6243886261990258e+02
pressure[innode_1] 7.6257383106909273e+01
pressure[innode_2] 7.8988104402251722e+01
pressure[innode_3] 7.8885119922585829e+01
pressure[innode_4] 81.01325
pressure[innode_5] 8.0959582165284772e+01
pressure[innode_6] 7.4093940919316339e+01
pressure[innode_7] 81.01325
pressure[innode_8] 8.0360947472859280e+01
pressure[source_1] 81.01325
pressure[source_2] 81.01325
pressure[source_3] 81.01325
pressure[sink_1] 4.0181333213787276e+01
pressure[sink_2] 7.4725444832257310e+01
pressure[sink_3] 8.0360947472859280e+01
pressure[sink_4] 4.8192681566272114e+01
pressure[sink_5] 3.9035608799318254e+01
pressure[sink_6] 4.2282410824174647e+01
pressure[sink_7] 4.1501548869849493e+01
pressure[sink_8] 4.0822631055996965e+01
pressure[sink_9] 4.9536609869313395e+01
pressure[sink_10] 7.6409084414512819e+01
pressure[sink_11] 7.6257383106909273e+01
pressure[sink_12] 1.01325
pressure[sink_13] 7.4168536248649730e+01
pressure[sink_14] 74.2220186855652
pressure[sink_15] 7.4439491370545554e+01
pressure[sink_16] 75.2357332720916
pressure[sink_17] 3.9812187702351686e+01
pressure[sink_18] 4.5111459352508163e+01
pressure[sink_19] 7.8988104402251722e+01
pressure[sink_20] 4.3828410082564645e+01
pressure[sink_21] 1.6860937795841806e+00
pressure[sink_22] 4.1245102356142283e+01
pressure[sink_23] 80.1962294611995
pressure[sink_24] 1.8881396363893748e+00
pressure[sink_25] 7.4093940919316339e+01
pressure[sink_26] 57.8353732844678
pressure[sink_27] 8.0312141454342182e+01
pressure[sink_28] 7.7063119007774674e+01
pressure[sink_29] 7.7358401281391849e+01
interdiction[source_1,sink_3] 0
interdiction[innode_1,sink_16] 0
interdiction[innode_6,sink_13] 0
interdiction[sink_13,sink_14] 0
interdiction[sink_14,sink_10] 0
interdiction[sink_25,sink_26] 0
interdiction[sink_26,sink_9] 0
interdiction[sink_9,sink_18] 0
interdiction[sink_26,sink_4] 0
interdiction[sink_4,sink_20] 0
interdiction[sink_18,sink_6] 0
interdiction[sink_25,innode_8] 0
interdiction[sink_6,sink_7] 0
interdiction[sink_6,sink_22] 0
interdiction[sink_7,sink_24] 0
interdiction[sink_22,sink_1] 0
interdiction[sink_24,sink_21] 0
interdiction[sink_21,sink_12] 0
interdiction[sink_7,sink_5] 0
interdiction[sink_5,sink_17] 0
interdiction[sink_17,sink_4] 1
interdiction[sink_17,sink_8] 0
interdiction[sink_3,sink_23] 0
interdiction[sink_8,sink_20] 0
interdiction[sink_25,sink_20] 1
interdiction[sink_25,sink_15] 0
interdiction[sink_15,sink_29] 1
interdiction[sink_29,sink_28] 0
interdiction[sink_29,sink_2] 0
interdiction[sink_2,sink_15] 0
interdiction[sink_29,innode_7] 0
interdiction[innode_4,sink_19] 0
interdiction[sink_19,innode_3] 0
interdiction[innode_4,innode_5] 0
interdiction[sink_27,innode_5] 0
interdiction[sink_27,sink_19] 0
interdiction[sink_10,sink_11] 0
interdiction[sink_10,innode_2] 0
interdiction[sink_10,innode_3] 0
interdiction[innode_6,sink_25] 0
interdiction[sink_11,innode_1] 0
interdiction[sink_19,innode_2] 0
interdiction[source_3,innode_4] 0
interdiction[source_2,innode_7] 0
interdiction[sink_3,innode_8] 0
WCcheckFlow[source_1,sink_3] 39
WCcheckFlow[innode_1,sink_16] 1
WCcheckFlow[innode_6,sink_13] 13
WCcheckFlow[sink_13,sink_14] 12
WCcheckFlow[sink_14,sink_10] 11
WCcheckFlow[sink_25,sink_26] 15
WCcheckFlow[sink_26,sink_9] 12
WCcheckFlow[sink_9,sink_18] 11
WCcheckFlow[sink_26,sink_4] 2
WCcheckFlow[sink_4,sink_20] 1
WCcheckFlow[sink_18,sink_6] 10
WCcheckFlow[sink_25,innode_8] -36
WCcheckFlow[sink_6,sink_7] 7
WCcheckFlow[sink_6,sink_22] 2
WCcheckFlow[sink_7,sink_24] 3
WCcheckFlow[sink_22,sink_1] 1
WCcheckFlow[sink_24,sink_21] 2
WCcheckFlow[sink_21,sink_12] 1
WCcheckFlow[sink_7,sink_5] 3
WCcheckFlow[sink_5,sink_17] 2
WCcheckFlow[sink_17,sink_4] 0
WCcheckFlow[sink_17,sink_8] 1
WCcheckFlow[sink_3,sink_23] 1
WCcheckFlow[sink_8,sink_20] 0
WCcheckFlow[sink_25,sink_20] 0
WCcheckFlow[sink_25,sink_15] 6
WCcheckFlow[sink_15,sink_29] 0
WCcheckFlow[sink_29,sink_28] 1
WCcheckFlow[sink_29,sink_2] -4
WCcheckFlow[sink_2,sink_15] -5
WCcheckFlow[sink_29,innode_7] 2
WCcheckFlow[innode_4,sink_19] -4
WCcheckFlow[sink_19,innode_3] -5
WCcheckFlow[innode_4,innode_5] 2
WCcheckFlow[sink_27,innode_5] -1
WCcheckFlow[sink_27,sink_19] 0
WCcheckFlow[sink_10,sink_11] 3
WCcheckFlow[sink_10,innode_2] 1
WCcheckFlow[sink_10,innode_3] 6
WCcheckFlow[innode_6,sink_25] -14
WCcheckFlow[sink_11,innode_1] 2
WCcheckFlow[sink_19,innode_2] 0
WCcheckFlow[source_3,innode_4] -1
WCcheckFlow[source_2,innode_7] -1
WCcheckFlow[sink_3,innode_8] 37
